(set-logic QF_S)
(declare-fun _var_0xINPUT_102653_() String)
(declare-fun __woorpje_diseq_pref0_() String)
(declare-fun __woorpje_diseq_suf_l0_() String)
(declare-fun __woorpje_diseq_suf_r0_() String)
(assert (=(str.++ _var_0xINPUT_102653_  "")(str.++ __woorpje_diseq_pref0_  "D" __woorpje_diseq_suf_l0_  "")) )
(assert (=(str.++  "vvxX4K7DcI" "")(str.++ __woorpje_diseq_pref0_  "I" __woorpje_diseq_suf_r0_  "")) )
(check-sat)
